************************************************************************
file with basedata            : mm59_.bas
initial value random generator: 1223479006
************************************************************************
projects                      :  1
jobs (incl. supersource/sink ):  12
horizon                       :  73
RESOURCES
  - renewable                 :  2   R
  - nonrenewable              :  2   N
  - doubly constrained        :  0   D
************************************************************************
PROJECT INFORMATION:
pronr.  #jobs rel.date duedate tardcost  MPM-Time
    1     10      0       14        5       14
************************************************************************
PRECEDENCE RELATIONS:
jobnr.    #modes  #successors   successors
   0        1          3           1   2   3
   1        3          1           4
   2        3          2           4   5
   3        3          1           7
   4        3          3           8   9  10
   5        3          2           6   8
   6        3          1          10
   7        3          2           9  10
   8        3          1          11
   9        3          1          11
  10        3          1          11
  11        1          0        
************************************************************************
REQUESTS/DURATIONS:
jobnr. mode duration  R 1  R 2  R 3  R 4  E(W 1)  E(W 2)
------------------------------------------------------------------------
  0      1     0       0    0    0    0     0       0
  1      1     1       9    8    0    8    17       8
  2      1     5       6    9    4    0    75      20
  3      1     1       8    4    6    0    12       6
  4      1     1       8    5   10    0    13      10
  5      1     1       2    6    4    0     8       4
  6      1     6       8    9    3    0    102      18
  7      1     1       7    9    9    0    16       9
  8      1     2       7    5    0    8    24      16
  9      1     2       9    4    0    4    26       8
 10      1     2       4    7    0   10    22      20
 11      1     0       0    0    0    0     0       0
************************************************************************
RESOURCEAVAILABILITIES:
  R 1  R 2
   45   75
************************************************************************
RESOURCE LIMITS:
jobnr.  l(R 1)  u(R 1)  l(R 2)  u(R 2)
------------------------------------------------------------------------
  0        0       0       0       0
  1        9      17       4       8
  2        8      15       2       4
  3        6      12       3       6
  4        7      13       5      10
  5        4       8       2       4
  6        9      17       2       3
  7        9      16       5       9
  8        7      12       4       8
  9        7      13       2       4
 10        6      11       5      10
 11        0       0       0       0
************************************************************************
SCENARIOS:
------------------------------------------------------------------------
RESOURCE k = 1
s = 1: (0, 16, 133, 8, 13, 8, 75, 16, 26, 16, 16, 0)
s = 2: (0, 28, 92, 11, 14, 10, 95, 17, 34, 34, 13, 0)
s = 3: (0, 13, 56, 12, 12, 6, 72, 21, 33, 33, 21, 0)
s = 4: (0, 19, 82, 16, 10, 13, 97, 15, 21, 24, 13, 0)
s = 5: (0, 16, 68, 8, 11, 9, 116, 20, 25, 34, 21, 0)
s = 6: (0, 18, 64, 11, 18, 9, 107, 18, 25, 29, 22, 0)
s = 7: (0, 23, 56, 14, 19, 9, 98, 14, 25, 18, 25, 0)
s = 8: (0, 15, 104, 17, 19, 10, 126, 14, 21, 20, 13, 0)
s = 9: (0, 16, 54, 14, 10, 9, 93, 12, 21, 29, 20, 0)
s = 10: (0, 16, 43, 15, 17, 8, 160, 21, 25, 18, 25, 0)
s = 11: (0, 18, 76, 18, 16, 7, 60, 12, 21, 26, 28, 0)
s = 12: (0, 18, 69, 12, 24, 7, 113, 23, 28, 19, 17, 0)
s = 13: (0, 11, 67, 11, 10, 5, 55, 12, 22, 28, 23, 0)
s = 14: (0, 26, 96, 7, 9, 11, 174, 13, 42, 24, 23, 0)
s = 15: (0, 12, 103, 10, 12, 9, 89, 28, 23, 30, 18, 0)
s = 16: (0, 13, 70, 11, 19, 7, 99, 9, 15, 29, 19, 0)
s = 17: (0, 28, 58, 12, 15, 6, 87, 12, 21, 28, 22, 0)
s = 18: (0, 24, 71, 16, 10, 5, 81, 29, 29, 22, 17, 0)
s = 19: (0, 19, 82, 9, 12, 7, 63, 14, 35, 31, 34, 0)
s = 20: (0, 15, 65, 13, 13, 12, 123, 22, 27, 29, 16, 0)
s = 21: (0, 15, 69, 10, 21, 9, 162, 20, 33, 30, 31, 0)
s = 22: (0, 19, 61, 18, 17, 8, 124, 16, 17, 23, 12, 0)
s = 23: (0, 26, 67, 21, 12, 11, 66, 11, 20, 29, 24, 0)
s = 24: (0, 18, 76, 10, 17, 10, 116, 18, 19, 21, 15, 0)
s = 25: (0, 20, 63, 11, 16, 10, 93, 18, 32, 23, 15, 0)
s = 26: (0, 17, 102, 11, 12, 8, 78, 15, 24, 26, 23, 0)
s = 27: (0, 11, 51, 15, 9, 7, 93, 17, 15, 32, 16, 0)
s = 28: (0, 20, 56, 17, 11, 6, 92, 14, 25, 35, 21, 0)
s = 29: (0, 26, 59, 10, 15, 9, 93, 20, 28, 24, 24, 0)
s = 30: (0, 14, 98, 16, 13, 7, 96, 22, 24, 27, 19, 0)
s = 31: (0, 12, 62, 20, 14, 7, 56, 22, 19, 15, 15, 0)
s = 32: (0, 18, 66, 15, 16, 7, 105, 10, 24, 26, 15, 0)
s = 33: (0, 15, 58, 10, 11, 9, 72, 14, 30, 18, 32, 0)
s = 34: (0, 20, 58, 11, 16, 9, 100, 21, 34, 33, 15, 0)
s = 35: (0, 22, 103, 14, 11, 5, 129, 13, 22, 22, 27, 0)
s = 36: (0, 16, 69, 13, 13, 5, 67, 17, 20, 31, 17, 0)
s = 37: (0, 26, 61, 7, 17, 6, 152, 15, 34, 22, 15, 0)
s = 38: (0, 10, 41, 10, 19, 9, 64, 14, 21, 27, 26, 0)
s = 39: (0, 14, 96, 20, 7, 9, 139, 13, 27, 20, 24, 0)
s = 40: (0, 25, 103, 16, 17, 10, 73, 22, 16, 31, 17, 0)
s = 41: (0, 17, 112, 7, 12, 10, 81, 16, 17, 35, 16, 0)
s = 42: (0, 13, 50, 10, 12, 7, 136, 18, 15, 29, 21, 0)
s = 43: (0, 21, 46, 12, 12, 10, 85, 12, 20, 27, 24, 0)
s = 44: (0, 20, 80, 11, 13, 8, 61, 27, 21, 47, 21, 0)
s = 45: (0, 22, 102, 11, 15, 6, 63, 20, 30, 35, 18, 0)
s = 46: (0, 20, 77, 11, 12, 6, 139, 11, 22, 20, 24, 0)
s = 47: (0, 14, 77, 17, 9, 8, 166, 15, 18, 20, 18, 0)
s = 48: (0, 20, 121, 13, 12, 6, 96, 13, 23, 22, 22, 0)
s = 49: (0, 22, 91, 10, 12, 6, 86, 16, 21, 32, 22, 0)
s = 50: (0, 14, 61, 12, 12, 11, 98, 11, 30, 29, 32, 0)
s = 51: (0, 18, 89, 16, 15, 11, 156, 15, 15, 28, 24, 0)
s = 52: (0, 16, 92, 22, 20, 6, 160, 14, 22, 20, 18, 0)
s = 53: (0, 15, 62, 14, 10, 9, 95, 22, 15, 34, 39, 0)
s = 54: (0, 16, 94, 9, 16, 8, 72, 14, 22, 32, 27, 0)
s = 55: (0, 11, 66, 12, 15, 6, 108, 15, 21, 20, 18, 0)
s = 56: (0, 31, 44, 17, 19, 9, 84, 15, 30, 26, 19, 0)
s = 57: (0, 17, 109, 10, 11, 7, 166, 16, 32, 17, 24, 0)
s = 58: (0, 23, 40, 12, 18, 9, 96, 17, 23, 17, 29, 0)
s = 59: (0, 10, 46, 9, 12, 10, 70, 9, 25, 43, 28, 0)
s = 60: (0, 16, 56, 19, 15, 7, 79, 18, 29, 30, 17, 0)
s = 61: (0, 18, 99, 16, 9, 11, 116, 12, 34, 27, 19, 0)
s = 62: (0, 15, 68, 12, 13, 7, 100, 10, 31, 17, 20, 0)
s = 63: (0, 11, 69, 7, 15, 9, 107, 26, 21, 21, 18, 0)
s = 64: (0, 23, 97, 12, 14, 12, 64, 11, 20, 28, 21, 0)
s = 65: (0, 29, 62, 11, 12, 10, 115, 17, 26, 20, 27, 0)
s = 66: (0, 20, 68, 16, 9, 9, 85, 9, 17, 23, 14, 0)
s = 67: (0, 14, 51, 20, 13, 12, 95, 14, 16, 37, 21, 0)
s = 68: (0, 27, 57, 12, 15, 9, 129, 25, 17, 31, 15, 0)
s = 69: (0, 18, 72, 14, 12, 6, 121, 15, 24, 20, 25, 0)
s = 70: (0, 21, 78, 11, 9, 9, 89, 10, 37, 30, 24, 0)
s = 71: (0, 13, 66, 18, 10, 8, 121, 20, 35, 20, 14, 0)
s = 72: (0, 15, 72, 9, 9, 10, 162, 24, 21, 32, 23, 0)
s = 73: (0, 20, 84, 20, 12, 8, 65, 12, 38, 40, 35, 0)
s = 74: (0, 17, 59, 15, 15, 7, 87, 13, 29, 34, 23, 0)
s = 75: (0, 25, 111, 9, 16, 10, 128, 19, 27, 18, 19, 0)
s = 76: (0, 16, 104, 11, 12, 6, 101, 17, 44, 26, 33, 0)
s = 77: (0, 28, 87, 8, 11, 7, 65, 23, 33, 32, 27, 0)
s = 78: (0, 18, 92, 11, 16, 12, 65, 16, 24, 34, 24, 0)
s = 79: (0, 20, 64, 17, 12, 13, 96, 20, 23, 34, 23, 0)
s = 80: (0, 19, 89, 10, 10, 7, 115, 16, 28, 26, 23, 0)
s = 81: (0, 17, 88, 19, 12, 10, 132, 12, 38, 33, 16, 0)
s = 82: (0, 14, 60, 10, 8, 8, 124, 13, 19, 18, 12, 0)
s = 83: (0, 23, 95, 12, 13, 13, 61, 23, 26, 26, 21, 0)
s = 84: (0, 22, 79, 14, 16, 7, 72, 22, 27, 37, 23, 0)
s = 85: (0, 16, 84, 12, 11, 7, 75, 13, 26, 26, 15, 0)
s = 86: (0, 17, 104, 11, 24, 9, 121, 18, 38, 27, 16, 0)
s = 87: (0, 19, 72, 12, 11, 9, 152, 15, 35, 35, 14, 0)
s = 88: (0, 27, 59, 15, 14, 5, 106, 18, 25, 21, 24, 0)
s = 89: (0, 14, 48, 10, 13, 8, 92, 18, 29, 21, 15, 0)
s = 90: (0, 12, 61, 20, 17, 9, 107, 20, 33, 24, 17, 0)
s = 91: (0, 32, 99, 19, 14, 10, 68, 19, 27, 23, 17, 0)
s = 92: (0, 28, 68, 17, 13, 10, 135, 14, 20, 18, 20, 0)
s = 93: (0, 15, 65, 17, 15, 6, 82, 15, 23, 25, 26, 0)
s = 94: (0, 20, 94, 8, 11, 12, 86, 14, 18, 21, 18, 0)
s = 95: (0, 11, 87, 10, 17, 12, 83, 17, 30, 26, 22, 0)
s = 96: (0, 14, 110, 10, 17, 10, 160, 12, 25, 25, 25, 0)
s = 97: (0, 20, 59, 9, 13, 11, 133, 23, 32, 23, 16, 0)
s = 98: (0, 21, 65, 18, 20, 8, 52, 12, 19, 24, 18, 0)
s = 99: (0, 13, 100, 17, 9, 5, 163, 21, 27, 24, 23, 0)
s = 100: (0, 17, 97, 14, 13, 6, 88, 21, 19, 32, 23, 0)
s = 101: (0, 10, 95, 12, 15, 8, 94, 15, 19, 28, 31, 0)
s = 102: (0, 25, 124, 24, 19, 10, 110, 16, 17, 23, 31, 0)
s = 103: (0, 26, 68, 15, 10, 9, 56, 15, 18, 17, 28, 0)
s = 104: (0, 20, 82, 10, 13, 8, 108, 19, 20, 39, 24, 0)
s = 105: (0, 16, 90, 16, 10, 9, 74, 19, 21, 17, 24, 0)
s = 106: (0, 15, 73, 17, 14, 10, 74, 19, 14, 30, 21, 0)
s = 107: (0, 24, 90, 16, 22, 10, 77, 22, 14, 24, 28, 0)
s = 108: (0, 13, 66, 12, 17, 12, 85, 14, 14, 16, 33, 0)
s = 109: (0, 21, 85, 9, 16, 8, 123, 12, 30, 21, 32, 0)
s = 110: (0, 21, 105, 15, 15, 9, 101, 10, 35, 21, 25, 0)
s = 111: (0, 15, 93, 8, 8, 8, 148, 21, 30, 22, 28, 0)
s = 112: (0, 23, 95, 15, 12, 7, 145, 23, 21, 36, 26, 0)
s = 113: (0, 19, 60, 10, 21, 8, 84, 16, 30, 31, 19, 0)
s = 114: (0, 15, 65, 20, 11, 7, 82, 15, 15, 18, 24, 0)
s = 115: (0, 19, 71, 10, 17, 8, 119, 14, 21, 23, 19, 0)
s = 116: (0, 14, 41, 13, 14, 5, 120, 16, 31, 18, 13, 0)
s = 117: (0, 16, 76, 10, 11, 11, 73, 12, 22, 21, 18, 0)
s = 118: (0, 13, 99, 13, 10, 6, 99, 11, 29, 41, 22, 0)
s = 119: (0, 13, 95, 18, 15, 7, 109, 15, 21, 38, 19, 0)
s = 120: (0, 19, 83, 18, 8, 6, 126, 15, 19, 34, 24, 0)
s = 121: (0, 17, 72, 14, 17, 9, 101, 21, 19, 31, 14, 0)
s = 122: (0, 17, 76, 9, 18, 7, 115, 14, 38, 16, 31, 0)
s = 123: (0, 17, 101, 15, 15, 9, 96, 14, 14, 27, 17, 0)
s = 124: (0, 15, 78, 14, 16, 15, 120, 20, 22, 18, 21, 0)
s = 125: (0, 13, 64, 14, 9, 8, 108, 19, 23, 22, 33, 0)
s = 126: (0, 20, 80, 10, 12, 5, 94, 27, 26, 24, 19, 0)
s = 127: (0, 20, 84, 14, 20, 9, 59, 16, 16, 28, 31, 0)
s = 128: (0, 17, 63, 9, 14, 8, 119, 12, 28, 31, 21, 0)
s = 129: (0, 13, 114, 12, 12, 6, 77, 10, 31, 20, 21, 0)
s = 130: (0, 23, 69, 20, 12, 12, 99, 18, 20, 23, 27, 0)
s = 131: (0, 10, 76, 14, 15, 12, 83, 17, 18, 35, 21, 0)
s = 132: (0, 32, 77, 10, 9, 7, 63, 16, 30, 30, 15, 0)
s = 133: (0, 15, 75, 13, 12, 11, 159, 19, 18, 26, 36, 0)
s = 134: (0, 11, 54, 14, 13, 12, 112, 20, 31, 17, 34, 0)
s = 135: (0, 17, 95, 16, 11, 10, 80, 14, 32, 19, 24, 0)
s = 136: (0, 24, 79, 18, 14, 8, 83, 16, 22, 20, 20, 0)
s = 137: (0, 24, 84, 10, 18, 9, 94, 14, 29, 34, 22, 0)
s = 138: (0, 14, 98, 11, 15, 12, 122, 12, 44, 24, 21, 0)
s = 139: (0, 18, 74, 11, 9, 8, 84, 17, 18, 22, 25, 0)
s = 140: (0, 21, 86, 15, 14, 14, 82, 15, 20, 23, 22, 0)
s = 141: (0, 18, 74, 12, 9, 6, 58, 11, 25, 23, 28, 0)
s = 142: (0, 15, 134, 12, 10, 11, 88, 22, 20, 40, 30, 0)
s = 143: (0, 10, 80, 11, 16, 6, 73, 22, 29, 27, 20, 0)
s = 144: (0, 26, 133, 13, 13, 10, 93, 15, 23, 42, 27, 0)
s = 145: (0, 15, 69, 7, 9, 14, 118, 17, 24, 43, 20, 0)
s = 146: (0, 11, 83, 12, 15, 8, 158, 13, 30, 30, 35, 0)
s = 147: (0, 14, 84, 15, 16, 8, 118, 19, 30, 15, 43, 0)
s = 148: (0, 13, 67, 20, 16, 6, 94, 16, 14, 41, 23, 0)
s = 149: (0, 24, 76, 9, 9, 11, 154, 16, 20, 27, 20, 0)
s = 150: (0, 11, 68, 13, 11, 9, 111, 15, 17, 31, 27, 0)
s = 151: (0, 14, 72, 18, 18, 8, 68, 27, 20, 19, 22, 0)
s = 152: (0, 13, 79, 15, 16, 10, 69, 28, 27, 22, 16, 0)
s = 153: (0, 21, 96, 14, 19, 6, 148, 18, 41, 25, 20, 0)
s = 154: (0, 18, 96, 13, 20, 7, 68, 25, 36, 16, 25, 0)
s = 155: (0, 26, 84, 10, 15, 8, 72, 15, 33, 31, 25, 0)
s = 156: (0, 27, 42, 8, 14, 10, 105, 26, 24, 19, 35, 0)
s = 157: (0, 12, 43, 13, 13, 5, 148, 21, 31, 27, 15, 0)
s = 158: (0, 13, 41, 19, 11, 7, 91, 15, 42, 15, 22, 0)
s = 159: (0, 14, 75, 9, 18, 5, 65, 16, 21, 25, 39, 0)
s = 160: (0, 17, 96, 14, 11, 8, 117, 18, 17, 45, 23, 0)
s = 161: (0, 20, 90, 22, 19, 5, 122, 13, 19, 17, 26, 0)
s = 162: (0, 20, 59, 14, 8, 9, 95, 9, 36, 25, 21, 0)
s = 163: (0, 12, 104, 9, 16, 10, 94, 15, 30, 19, 21, 0)
s = 164: (0, 16, 66, 19, 12, 8, 110, 18, 31, 30, 16, 0)
s = 165: (0, 16, 81, 11, 15, 6, 135, 18, 29, 34, 23, 0)
s = 166: (0, 21, 66, 9, 15, 9, 144, 17, 28, 25, 29, 0)
s = 167: (0, 26, 114, 12, 21, 10, 122, 9, 31, 34, 17, 0)
s = 168: (0, 12, 48, 14, 11, 14, 78, 11, 24, 33, 18, 0)
s = 169: (0, 22, 61, 15, 9, 9, 140, 13, 31, 40, 16, 0)
s = 170: (0, 19, 52, 13, 11, 6, 94, 25, 21, 38, 35, 0)
s = 171: (0, 13, 59, 17, 10, 8, 77, 19, 35, 20, 17, 0)
s = 172: (0, 17, 72, 13, 18, 8, 99, 15, 30, 26, 20, 0)
s = 173: (0, 11, 82, 8, 14, 5, 68, 19, 21, 24, 17, 0)
s = 174: (0, 15, 105, 14, 14, 9, 80, 15, 20, 34, 20, 0)
s = 175: (0, 23, 92, 13, 14, 11, 137, 14, 17, 44, 35, 0)
s = 176: (0, 25, 121, 16, 17, 8, 136, 15, 31, 22, 23, 0)
s = 177: (0, 20, 48, 14, 20, 8, 62, 12, 23, 26, 13, 0)
s = 178: (0, 18, 106, 14, 8, 7, 86, 19, 24, 34, 24, 0)
s = 179: (0, 12, 74, 11, 10, 11, 91, 10, 18, 24, 23, 0)
s = 180: (0, 15, 50, 12, 18, 12, 91, 14, 36, 38, 26, 0)
s = 181: (0, 22, 80, 15, 13, 8, 87, 13, 13, 19, 17, 0)
s = 182: (0, 11, 95, 8, 17, 7, 108, 11, 30, 24, 21, 0)
s = 183: (0, 11, 71, 13, 10, 5, 128, 14, 24, 30, 21, 0)
s = 184: (0, 13, 45, 13, 11, 6, 87, 14, 20, 26, 15, 0)
s = 185: (0, 23, 82, 11, 8, 10, 155, 16, 15, 40, 13, 0)
s = 186: (0, 19, 111, 21, 23, 5, 106, 18, 35, 45, 24, 0)
s = 187: (0, 24, 98, 13, 11, 7, 117, 18, 27, 25, 16, 0)
s = 188: (0, 14, 79, 9, 8, 7, 95, 14, 22, 19, 13, 0)
s = 189: (0, 13, 101, 10, 17, 11, 81, 15, 41, 22, 19, 0)
s = 190: (0, 20, 70, 16, 10, 9, 119, 19, 19, 21, 21, 0)
s = 191: (0, 16, 76, 11, 10, 9, 76, 12, 22, 27, 17, 0)
s = 192: (0, 15, 69, 17, 14, 8, 56, 21, 21, 21, 23, 0)
s = 193: (0, 21, 74, 10, 11, 9, 135, 20, 17, 17, 25, 0)
s = 194: (0, 19, 99, 10, 13, 12, 143, 12, 16, 18, 30, 0)
s = 195: (0, 12, 89, 16, 15, 8, 85, 17, 21, 29, 16, 0)
s = 196: (0, 15, 92, 8, 17, 11, 126, 15, 23, 24, 22, 0)
s = 197: (0, 13, 79, 9, 13, 9, 94, 13, 19, 34, 34, 0)
s = 198: (0, 23, 53, 15, 16, 11, 175, 13, 28, 18, 16, 0)
s = 199: (0, 14, 71, 14, 18, 7, 143, 16, 20, 28, 26, 0)
s = 200: (0, 25, 65, 16, 17, 6, 130, 18, 16, 32, 24, 0)
------------------------------------------------------------------------
RESOURCE k = 2
s = 1: (0, 8, 36, 4, 10, 4, 14, 9, 17, 5, 15, 0)
s = 2: (0, 13, 25, 6, 11, 5, 17, 10, 23, 11, 12, 0)
s = 3: (0, 6, 15, 6, 10, 3, 13, 12, 22, 11, 19, 0)
s = 4: (0, 9, 22, 8, 8, 7, 18, 9, 14, 8, 12, 0)
s = 5: (0, 8, 19, 4, 9, 5, 21, 12, 17, 11, 19, 0)
s = 6: (0, 9, 18, 6, 14, 5, 19, 10, 17, 9, 20, 0)
s = 7: (0, 11, 15, 7, 15, 5, 18, 8, 17, 6, 23, 0)
s = 8: (0, 7, 28, 9, 15, 5, 23, 8, 14, 6, 12, 0)
s = 9: (0, 8, 15, 7, 8, 5, 17, 7, 14, 9, 18, 0)
s = 10: (0, 8, 12, 8, 14, 4, 29, 12, 17, 6, 23, 0)
s = 11: (0, 9, 21, 9, 12, 4, 11, 7, 14, 8, 25, 0)
s = 12: (0, 9, 19, 6, 19, 4, 20, 13, 19, 6, 15, 0)
s = 13: (0, 5, 18, 6, 8, 3, 10, 7, 15, 9, 21, 0)
s = 14: (0, 13, 26, 4, 7, 6, 31, 8, 28, 8, 21, 0)
s = 15: (0, 6, 28, 5, 10, 5, 16, 16, 15, 10, 17, 0)
s = 16: (0, 6, 19, 6, 14, 4, 18, 5, 10, 9, 18, 0)
s = 17: (0, 14, 16, 6, 12, 3, 16, 7, 14, 9, 20, 0)
s = 18: (0, 11, 19, 8, 8, 3, 15, 16, 19, 7, 15, 0)
s = 19: (0, 9, 22, 5, 9, 4, 12, 8, 24, 10, 31, 0)
s = 20: (0, 7, 18, 7, 10, 6, 22, 12, 18, 9, 15, 0)
s = 21: (0, 7, 19, 5, 16, 5, 29, 11, 22, 10, 28, 0)
s = 22: (0, 9, 17, 9, 13, 4, 22, 9, 11, 7, 11, 0)
s = 23: (0, 13, 18, 11, 9, 6, 12, 7, 14, 9, 22, 0)
s = 24: (0, 9, 21, 5, 13, 5, 21, 11, 13, 7, 14, 0)
s = 25: (0, 10, 17, 6, 12, 5, 17, 10, 22, 8, 13, 0)
s = 26: (0, 8, 28, 6, 9, 4, 14, 9, 16, 8, 21, 0)
s = 27: (0, 6, 14, 8, 7, 4, 17, 10, 10, 10, 14, 0)
s = 28: (0, 10, 15, 9, 9, 3, 17, 8, 17, 11, 19, 0)
s = 29: (0, 13, 16, 5, 12, 5, 17, 12, 19, 8, 22, 0)
s = 30: (0, 7, 27, 8, 10, 4, 17, 13, 16, 9, 17, 0)
s = 31: (0, 6, 17, 10, 11, 4, 10, 13, 13, 5, 14, 0)
s = 32: (0, 9, 18, 8, 13, 4, 19, 6, 16, 8, 14, 0)
s = 33: (0, 8, 16, 5, 9, 5, 13, 8, 20, 6, 29, 0)
s = 34: (0, 10, 16, 6, 12, 5, 18, 12, 23, 11, 13, 0)
s = 35: (0, 10, 28, 7, 9, 3, 23, 8, 15, 7, 24, 0)
s = 36: (0, 8, 19, 7, 10, 3, 12, 10, 14, 10, 15, 0)
s = 37: (0, 13, 17, 4, 13, 3, 27, 9, 23, 7, 14, 0)
s = 38: (0, 5, 11, 5, 15, 5, 12, 8, 14, 9, 24, 0)
s = 39: (0, 7, 26, 10, 6, 5, 25, 7, 18, 7, 22, 0)
s = 40: (0, 12, 28, 8, 13, 5, 13, 13, 11, 10, 16, 0)
s = 41: (0, 8, 30, 4, 10, 5, 15, 9, 12, 11, 15, 0)
s = 42: (0, 6, 14, 5, 9, 4, 24, 10, 10, 9, 19, 0)
s = 43: (0, 10, 13, 6, 9, 5, 15, 7, 13, 9, 22, 0)
s = 44: (0, 10, 22, 6, 10, 4, 11, 15, 14, 15, 19, 0)
s = 45: (0, 11, 28, 6, 12, 3, 12, 11, 20, 11, 16, 0)
s = 46: (0, 9, 21, 6, 10, 3, 25, 7, 15, 7, 22, 0)
s = 47: (0, 7, 21, 9, 7, 4, 30, 9, 12, 7, 16, 0)
s = 48: (0, 10, 33, 7, 10, 3, 17, 8, 16, 7, 20, 0)
s = 49: (0, 11, 25, 5, 9, 3, 16, 9, 14, 10, 20, 0)
s = 50: (0, 7, 17, 6, 9, 6, 18, 7, 20, 9, 29, 0)
s = 51: (0, 9, 24, 8, 12, 6, 28, 9, 10, 9, 21, 0)
s = 52: (0, 8, 25, 11, 15, 3, 29, 8, 15, 6, 17, 0)
s = 53: (0, 8, 17, 7, 8, 5, 17, 13, 10, 11, 35, 0)
s = 54: (0, 8, 25, 5, 12, 4, 13, 8, 15, 10, 24, 0)
s = 55: (0, 6, 18, 6, 12, 3, 19, 9, 14, 7, 16, 0)
s = 56: (0, 15, 12, 9, 15, 5, 15, 9, 20, 8, 17, 0)
s = 57: (0, 8, 29, 5, 9, 4, 30, 9, 21, 6, 22, 0)
s = 58: (0, 11, 11, 6, 14, 5, 17, 10, 15, 6, 26, 0)
s = 59: (0, 5, 13, 5, 9, 5, 13, 5, 17, 13, 26, 0)
s = 60: (0, 8, 15, 10, 12, 4, 14, 10, 19, 10, 16, 0)
s = 61: (0, 9, 27, 8, 7, 6, 21, 7, 23, 9, 18, 0)
s = 62: (0, 7, 18, 6, 10, 4, 18, 6, 21, 6, 18, 0)
s = 63: (0, 6, 19, 4, 12, 5, 19, 15, 14, 7, 16, 0)
s = 64: (0, 11, 26, 6, 11, 6, 12, 6, 13, 9, 19, 0)
s = 65: (0, 14, 17, 6, 9, 5, 21, 10, 18, 6, 24, 0)
s = 66: (0, 10, 18, 8, 7, 5, 15, 5, 12, 7, 13, 0)
s = 67: (0, 7, 14, 10, 10, 6, 17, 8, 11, 12, 19, 0)
s = 68: (0, 13, 16, 6, 12, 5, 23, 14, 11, 10, 14, 0)
s = 69: (0, 9, 20, 7, 9, 3, 22, 8, 16, 6, 23, 0)
s = 70: (0, 10, 21, 6, 7, 5, 16, 6, 25, 10, 22, 0)
s = 71: (0, 7, 18, 9, 8, 4, 22, 11, 24, 6, 12, 0)
s = 72: (0, 7, 20, 5, 7, 5, 29, 13, 14, 10, 21, 0)
s = 73: (0, 10, 23, 10, 10, 4, 12, 7, 26, 13, 32, 0)
s = 74: (0, 8, 16, 8, 11, 4, 16, 7, 20, 11, 21, 0)
s = 75: (0, 12, 30, 5, 13, 5, 23, 11, 18, 6, 18, 0)
s = 76: (0, 8, 28, 6, 9, 3, 18, 10, 29, 8, 30, 0)
s = 77: (0, 14, 23, 4, 9, 4, 12, 13, 22, 10, 24, 0)
s = 78: (0, 9, 25, 6, 12, 6, 12, 9, 16, 11, 22, 0)
s = 79: (0, 9, 17, 9, 10, 7, 17, 11, 16, 11, 21, 0)
s = 80: (0, 9, 24, 5, 8, 4, 21, 9, 19, 8, 21, 0)
s = 81: (0, 8, 24, 10, 9, 5, 24, 7, 26, 11, 15, 0)
s = 82: (0, 7, 16, 5, 6, 4, 22, 8, 13, 6, 11, 0)
s = 83: (0, 11, 26, 6, 10, 7, 11, 13, 18, 8, 19, 0)
s = 84: (0, 11, 21, 7, 13, 4, 13, 13, 18, 12, 21, 0)
s = 85: (0, 8, 23, 6, 9, 4, 14, 7, 17, 8, 14, 0)
s = 86: (0, 8, 28, 6, 19, 5, 22, 10, 26, 9, 14, 0)
s = 87: (0, 9, 19, 6, 9, 5, 27, 9, 23, 11, 13, 0)
s = 88: (0, 13, 16, 8, 11, 3, 19, 10, 17, 7, 22, 0)
s = 89: (0, 7, 13, 5, 10, 4, 17, 10, 20, 7, 13, 0)
s = 90: (0, 6, 17, 10, 13, 5, 19, 11, 22, 8, 15, 0)
s = 91: (0, 15, 27, 10, 11, 5, 12, 11, 18, 7, 15, 0)
s = 92: (0, 13, 19, 9, 10, 5, 24, 8, 14, 6, 19, 0)
s = 93: (0, 8, 18, 9, 12, 3, 15, 8, 16, 8, 23, 0)
s = 94: (0, 10, 25, 4, 9, 6, 16, 8, 12, 7, 17, 0)
s = 95: (0, 5, 24, 5, 13, 6, 15, 10, 20, 8, 20, 0)
s = 96: (0, 7, 30, 5, 13, 5, 29, 7, 17, 8, 22, 0)
s = 97: (0, 10, 16, 5, 10, 6, 24, 13, 21, 7, 14, 0)
s = 98: (0, 10, 18, 9, 16, 4, 10, 7, 13, 8, 17, 0)
s = 99: (0, 7, 27, 9, 7, 3, 29, 12, 18, 8, 21, 0)
s = 100: (0, 8, 26, 7, 10, 3, 16, 12, 13, 10, 21, 0)
s = 101: (0, 5, 26, 6, 12, 4, 17, 8, 13, 9, 28, 0)
s = 102: (0, 12, 33, 12, 15, 5, 20, 9, 12, 8, 29, 0)
s = 103: (0, 13, 18, 8, 8, 5, 10, 9, 12, 5, 25, 0)
s = 104: (0, 10, 22, 5, 10, 4, 20, 11, 13, 12, 22, 0)
s = 105: (0, 8, 24, 8, 8, 5, 14, 11, 14, 6, 22, 0)
s = 106: (0, 7, 20, 9, 11, 5, 14, 11, 10, 9, 19, 0)
s = 107: (0, 12, 24, 8, 17, 5, 14, 13, 10, 8, 25, 0)
s = 108: (0, 7, 18, 6, 13, 6, 15, 8, 9, 5, 30, 0)
s = 109: (0, 10, 23, 5, 12, 4, 22, 7, 20, 7, 29, 0)
s = 110: (0, 10, 28, 8, 12, 5, 18, 6, 24, 7, 23, 0)
s = 111: (0, 8, 25, 4, 6, 4, 26, 12, 20, 7, 26, 0)
s = 112: (0, 11, 26, 8, 10, 4, 26, 13, 14, 11, 24, 0)
s = 113: (0, 9, 16, 5, 16, 4, 15, 9, 20, 10, 18, 0)
s = 114: (0, 7, 18, 10, 8, 4, 15, 9, 10, 6, 22, 0)
s = 115: (0, 9, 19, 5, 13, 4, 21, 8, 14, 7, 18, 0)
s = 116: (0, 7, 11, 7, 11, 3, 22, 9, 21, 6, 12, 0)
s = 117: (0, 8, 21, 5, 9, 6, 13, 7, 15, 7, 16, 0)
s = 118: (0, 6, 27, 7, 8, 3, 18, 6, 20, 13, 20, 0)
s = 119: (0, 6, 26, 9, 12, 4, 20, 9, 14, 12, 17, 0)
s = 120: (0, 9, 22, 9, 6, 3, 23, 9, 13, 11, 22, 0)
s = 121: (0, 8, 20, 7, 13, 5, 18, 12, 13, 10, 13, 0)
s = 122: (0, 8, 21, 5, 14, 4, 21, 8, 26, 5, 29, 0)
s = 123: (0, 8, 27, 8, 12, 5, 17, 8, 9, 9, 15, 0)
s = 124: (0, 8, 21, 7, 12, 8, 22, 11, 15, 6, 19, 0)
s = 125: (0, 6, 17, 7, 7, 4, 20, 11, 15, 7, 30, 0)
s = 126: (0, 10, 22, 5, 9, 3, 17, 15, 18, 8, 18, 0)
s = 127: (0, 10, 23, 7, 15, 5, 11, 9, 11, 9, 28, 0)
s = 128: (0, 8, 17, 5, 11, 4, 21, 7, 19, 10, 19, 0)
s = 129: (0, 6, 31, 6, 10, 3, 14, 6, 21, 7, 19, 0)
s = 130: (0, 11, 19, 10, 10, 6, 18, 10, 13, 8, 25, 0)
s = 131: (0, 5, 21, 7, 12, 6, 15, 10, 12, 11, 19, 0)
s = 132: (0, 15, 21, 5, 7, 4, 11, 9, 20, 10, 14, 0)
s = 133: (0, 7, 20, 7, 9, 6, 29, 11, 12, 8, 32, 0)
s = 134: (0, 5, 15, 7, 10, 6, 20, 11, 21, 5, 31, 0)
s = 135: (0, 8, 26, 8, 9, 5, 15, 8, 22, 6, 22, 0)
s = 136: (0, 11, 21, 9, 11, 4, 15, 9, 15, 7, 18, 0)
s = 137: (0, 11, 23, 5, 14, 5, 17, 8, 19, 11, 20, 0)
s = 138: (0, 7, 27, 6, 12, 6, 22, 7, 29, 8, 19, 0)
s = 139: (0, 9, 20, 6, 7, 4, 15, 10, 12, 7, 23, 0)
s = 140: (0, 10, 23, 8, 11, 7, 15, 8, 13, 7, 20, 0)
s = 141: (0, 9, 20, 6, 7, 3, 11, 7, 17, 8, 25, 0)
s = 142: (0, 8, 36, 6, 8, 6, 16, 13, 14, 13, 28, 0)
s = 143: (0, 5, 22, 6, 13, 3, 13, 13, 20, 9, 19, 0)
s = 144: (0, 12, 36, 7, 10, 5, 17, 9, 16, 13, 24, 0)
s = 145: (0, 7, 19, 4, 7, 7, 21, 10, 16, 13, 18, 0)
s = 146: (0, 6, 22, 6, 11, 4, 28, 7, 20, 10, 32, 0)
s = 147: (0, 7, 23, 8, 12, 4, 21, 11, 20, 5, 39, 0)
s = 148: (0, 6, 18, 10, 12, 3, 17, 9, 9, 13, 21, 0)
s = 149: (0, 12, 21, 5, 7, 6, 28, 9, 13, 9, 18, 0)
s = 150: (0, 6, 18, 7, 8, 5, 20, 9, 11, 10, 25, 0)
s = 151: (0, 7, 20, 9, 14, 4, 12, 16, 14, 6, 20, 0)
s = 152: (0, 6, 22, 8, 12, 5, 13, 16, 18, 7, 15, 0)
s = 153: (0, 10, 26, 7, 15, 3, 26, 11, 27, 8, 18, 0)
s = 154: (0, 9, 26, 7, 16, 4, 12, 14, 24, 5, 23, 0)
s = 155: (0, 12, 23, 5, 12, 4, 13, 9, 22, 10, 23, 0)
s = 156: (0, 13, 12, 4, 11, 5, 19, 15, 16, 6, 32, 0)
s = 157: (0, 6, 12, 7, 10, 3, 26, 12, 21, 9, 14, 0)
s = 158: (0, 6, 11, 10, 9, 4, 16, 9, 28, 5, 20, 0)
s = 159: (0, 7, 20, 5, 14, 3, 12, 9, 14, 8, 36, 0)
s = 160: (0, 8, 26, 7, 8, 4, 21, 10, 12, 14, 21, 0)
s = 161: (0, 10, 24, 11, 15, 3, 22, 7, 13, 6, 24, 0)
s = 162: (0, 10, 16, 7, 6, 5, 17, 5, 24, 8, 19, 0)
s = 163: (0, 6, 28, 5, 13, 5, 17, 9, 20, 6, 19, 0)
s = 164: (0, 8, 18, 10, 9, 4, 20, 10, 21, 10, 15, 0)
s = 165: (0, 8, 22, 6, 11, 3, 24, 10, 19, 11, 21, 0)
s = 166: (0, 10, 18, 5, 11, 5, 26, 10, 19, 8, 27, 0)
s = 167: (0, 13, 31, 6, 17, 5, 22, 6, 21, 11, 15, 0)
s = 168: (0, 6, 13, 7, 8, 7, 14, 7, 16, 10, 17, 0)
s = 169: (0, 11, 17, 8, 7, 5, 25, 8, 21, 13, 15, 0)
s = 170: (0, 9, 14, 7, 8, 3, 17, 14, 14, 12, 32, 0)
s = 171: (0, 6, 16, 9, 7, 4, 14, 11, 23, 7, 15, 0)
s = 172: (0, 8, 20, 7, 14, 4, 18, 9, 20, 8, 19, 0)
s = 173: (0, 5, 22, 4, 11, 3, 12, 11, 14, 8, 16, 0)
s = 174: (0, 7, 28, 7, 11, 5, 15, 8, 13, 11, 18, 0)
s = 175: (0, 11, 25, 7, 11, 6, 25, 8, 12, 14, 32, 0)
s = 176: (0, 12, 33, 8, 14, 4, 24, 9, 21, 7, 21, 0)
s = 177: (0, 10, 13, 7, 16, 4, 11, 7, 16, 8, 12, 0)
s = 178: (0, 9, 29, 7, 6, 4, 16, 11, 16, 11, 22, 0)
s = 179: (0, 6, 20, 6, 8, 6, 16, 6, 12, 8, 21, 0)
s = 180: (0, 7, 14, 6, 14, 6, 17, 8, 24, 12, 24, 0)
s = 181: (0, 11, 22, 8, 10, 4, 16, 7, 9, 6, 15, 0)
s = 182: (0, 5, 26, 4, 13, 4, 19, 7, 20, 8, 19, 0)
s = 183: (0, 5, 19, 7, 8, 3, 23, 8, 16, 9, 19, 0)
s = 184: (0, 6, 12, 7, 9, 3, 16, 8, 13, 8, 14, 0)
s = 185: (0, 11, 22, 6, 6, 5, 28, 9, 10, 13, 11, 0)
s = 186: (0, 9, 30, 11, 18, 3, 19, 11, 24, 14, 22, 0)
s = 187: (0, 11, 27, 7, 8, 4, 21, 10, 18, 8, 14, 0)
s = 188: (0, 7, 21, 5, 6, 4, 17, 8, 15, 6, 12, 0)
s = 189: (0, 6, 27, 5, 13, 6, 15, 9, 27, 7, 17, 0)
s = 190: (0, 10, 19, 8, 8, 5, 21, 11, 13, 7, 19, 0)
s = 191: (0, 8, 21, 6, 8, 5, 14, 7, 15, 9, 16, 0)
s = 192: (0, 7, 19, 9, 11, 4, 10, 12, 14, 7, 21, 0)
s = 193: (0, 10, 20, 5, 9, 5, 24, 11, 11, 6, 23, 0)
s = 194: (0, 9, 27, 5, 10, 6, 26, 7, 11, 6, 27, 0)
s = 195: (0, 6, 24, 8, 12, 4, 15, 10, 14, 9, 14, 0)
s = 196: (0, 7, 25, 4, 13, 6, 23, 9, 16, 8, 20, 0)
s = 197: (0, 6, 21, 5, 10, 5, 17, 7, 13, 11, 31, 0)
s = 198: (0, 11, 15, 8, 13, 6, 31, 8, 19, 6, 15, 0)
s = 199: (0, 7, 19, 7, 14, 4, 26, 9, 13, 9, 24, 0)
s = 200: (0, 12, 18, 8, 13, 3, 23, 10, 11, 10, 22, 0)
************************************************************************
ES/LS-VALUES:
jobnr.   ES(i)    LS(i)
------------------------------------------------------------------------
  0        0        0
  1        0       65
  2        0       47
  3        0       65
  4        9       67
  5        9       56
  6       11       58
  7        2       67
  8       11       69
  9       10       69
 10       21       69
 11       24       73
************************************************************************
BIG-M-VALUES:
M1 = 36, M2 = 206
************************************************************************
